<number of tasks>
250

<cycle time>
1000

<order strength>
0.895


<task times>
1 400
2 77
3 172
4 85
5 72
6 107
7 60
8 170
9 150
10 225
11 228
12 228
13 222
14 266
15 162
16 188
17 220
18 51
19 137
20 309
21 266
22 102
23 172
24 69
25 81
26 127
27 263
28 63
29 68
30 66
31 139
32 239
33 107
34 46
35 83
36 239
37 20
38 150
39 362
40 68
41 65
42 310
43 68
44 81
45 124
46 36
47 232
48 133
49 115
50 208
51 27
52 61
53 91
54 44
55 114
56 53
57 164
58 99
59 96
60 210
61 31
62 120
63 43
64 136
65 229
66 102
67 31
68 97
69 140
70 101
71 122
72 189
73 132
74 177
75 257
76 34
77 46
78 107
79 76
80 64
81 140
82 186
83 41
84 73
85 88
86 121
87 34
88 210
89 214
90 291
91 172
92 227
93 43
94 345
95 76
96 184
97 221
98 106
99 160
100 77
101 188
102 215
103 191
104 217
105 71
106 23
107 149
108 82
109 94
110 234
111 109
112 184
113 47
114 215
115 112
116 94
117 182
118 67
119 28
120 21
121 149
122 144
123 196
124 99
125 68
126 157
127 136
128 175
129 118
130 173
131 150
132 71
133 40
134 41
135 83
136 274
137 58
138 107
139 189
140 41
141 170
142 56
143 148
144 210
145 244
146 162
147 185
148 201
149 155
150 221
151 277
152 125
153 56
154 98
155 135
156 87
157 304
158 150
159 119
160 272
161 20
162 249
163 155
164 257
165 67
166 100
167 323
168 83
169 22
170 146
171 213
172 156
173 136
174 281
175 108
176 95
177 25
178 153
179 68
180 235
181 126
182 84
183 34
184 154
185 214
186 73
187 49
188 163
189 167
190 128
191 175
192 179
193 21
194 32
195 266
196 291
197 80
198 124
199 126
200 152
201 95
202 271
203 313
204 106
205 197
206 59
207 95
208 104
209 46
210 375
211 38
212 176
213 137
214 52
215 245
216 34
217 264
218 51
219 304
220 76
221 224
222 96
223 145
224 148
225 127
226 164
227 78
228 37
229 96
230 220
231 164
232 144
233 209
234 176
235 74
236 170
237 381
238 65
239 228
240 71
241 101
242 163
243 238
244 166
245 77
246 250
247 42
248 101
249 202
250 135

<precedence relations>
1,51
1,58
1,59
1,61
2,4
2,5
3,4
3,5
4,6
4,7
4,8
4,9
4,10
5,6
5,7
5,8
5,9
5,10
6,11
6,12
6,13
6,14
6,15
6,16
6,17
7,11
7,12
7,13
7,14
7,15
7,16
7,17
8,11
8,12
8,13
8,14
8,15
8,16
8,17
9,11
9,12
9,13
9,14
9,15
9,16
9,17
10,11
10,12
10,13
10,14
10,15
10,16
10,17
11,18
11,19
11,20
11,21
12,18
12,19
12,20
12,21
13,18
13,19
13,20
13,21
14,18
14,19
14,20
14,21
15,18
15,19
15,20
15,21
16,18
16,19
16,20
16,21
17,18
17,19
17,20
17,21
18,22
18,23
18,24
18,25
18,26
18,27
19,22
19,23
19,24
19,25
19,26
19,27
20,22
20,23
20,24
20,25
20,26
20,27
21,22
21,23
21,24
21,25
21,26
21,27
22,28
22,29
22,30
22,31
22,32
23,28
23,29
23,30
23,31
23,32
24,28
24,29
24,30
24,31
24,32
25,28
25,29
25,30
25,31
25,32
26,28
26,30
27,28
27,31
28,67
29,33
29,34
29,35
29,36
30,33
30,34
30,35
30,36
30,37
31,33
31,34
31,35
31,36
31,37
32,33
32,34
32,35
32,36
32,37
33,38
33,39
33,40
33,41
34,38
34,39
34,40
34,41
35,38
35,39
35,40
35,41
36,38
36,39
36,40
36,41
37,38
37,39
37,40
37,41
38,42
38,43
38,44
39,42
39,43
39,44
40,42
40,43
40,44
41,42
41,43
41,44
42,45
42,46
42,47
42,48
42,49
43,45
43,46
43,47
43,48
43,49
44,45
44,46
44,47
44,48
44,49
45,50
45,51
45,52
45,53
46,50
46,51
46,52
46,53
47,50
47,51
47,52
48,50
48,51
48,52
48,59
49,50
49,51
49,52
49,53
50,54
50,55
50,56
50,57
50,58
50,60
51,54
51,60
51,66
52,56
52,57
52,60
52,61
53,54
53,55
53,56
53,58
53,59
53,61
54,92
54,93
55,62
56,62
56,63
56,65
56,66
57,62
57,65
57,66
58,62
58,63
58,64
58,65
58,66
59,62
59,63
59,65
59,66
60,62
60,63
60,68
61,62
61,63
61,64
61,65
62,69
62,70
63,75
64,85
64,87
65,67
65,68
65,69
65,70
66,67
66,68
66,69
66,70
67,71
67,72
67,73
67,74
67,75
67,76
68,71
68,98
68,104
69,71
69,72
69,73
69,74
69,75
70,71
70,72
70,73
70,74
70,75
70,76
71,158
71,159
71,184
72,77
72,78
72,79
73,77
73,78
73,79
74,77
74,78
74,79
75,77
75,78
76,77
76,78
76,79
77,80
78,80
78,81
78,83
79,80
79,81
79,82
79,83
80,84
80,85
80,87
81,84
81,85
81,86
81,87
82,84
82,85
82,86
82,87
83,84
83,85
83,86
83,87
84,88
84,89
85,88
85,89
86,88
86,89
87,88
87,89
88,90
88,91
88,92
88,93
89,90
89,91
89,92
89,93
90,94
90,95
90,96
90,97
90,98
90,99
91,94
91,95
92,94
92,95
92,96
92,97
92,99
93,96
93,107
93,109
94,100
94,101
94,102
95,100
95,101
95,102
96,100
96,102
96,104
97,100
97,101
98,100
98,101
99,103
100,136
101,105
101,106
101,107
101,108
101,109
102,108
102,196
103,105
103,107
104,106
104,108
104,112
105,110
105,111
105,112
106,110
106,111
106,118
107,139
107,143
108,190
108,208
109,110
110,114
110,115
110,117
110,129
111,113
111,114
111,116
112,113
112,114
112,117
112,118
113,119
113,120
113,125
114,131
114,132
115,119
116,119
116,120
116,121
117,121
117,132
118,147
118,157
119,122
119,123
120,122
120,124
120,126
120,127
121,125
121,134
122,128
122,130
122,131
122,137
122,138
122,139
123,191
123,192
124,128
124,129
125,180
125,197
125,209
126,129
126,132
127,130
127,146
127,153
128,169
128,192
129,133
130,147
130,165
131,162
132,133
133,134
133,135
133,136
133,137
133,138
133,139
134,140
134,142
135,141
136,140
136,141
136,143
137,140
137,141
137,142
138,140
138,143
139,140
139,141
139,142
139,147
140,145
140,148
141,146
141,153
142,144
143,144
143,145
143,147
143,148
144,149
144,150
144,152
144,153
145,149
145,150
145,151
145,152
145,153
146,150
146,155
147,149
147,167
148,149
148,150
148,152
148,153
149,154
149,155
150,154
150,156
150,157
151,154
152,155
152,171
152,173
153,154
153,167
154,158
154,159
154,160
154,161
155,158
155,159
155,160
155,163
156,158
156,159
156,162
157,158
157,165
158,169
158,181
159,164
160,166
160,175
160,182
160,192
161,164
161,168
162,165
162,167
163,164
163,166
164,170
164,172
164,176
165,170
166,234
166,238
167,210
167,217
167,244
168,170
168,171
168,173
169,190
169,195
169,215
170,174
170,177
171,204
171,214
171,215
172,207
173,175
173,176
173,182
174,182
174,188
175,179
175,181
176,178
176,190
176,193
177,178
177,180
178,186
178,203
179,183
179,184
179,185
180,203
180,224
181,187
181,188
181,196
181,211
182,183
182,185
183,240
184,197
185,189
185,191
186,192
186,229
187,190
188,189
188,201
188,213
188,224
190,209
190,223
191,193
191,194
193,195
193,197
194,196
195,200
195,202
195,203
195,230
196,198
197,199
197,201
198,204
198,208
199,206
199,233
200,205
200,240
201,239
202,240
202,243
203,207
204,209
205,226
206,212
207,211
208,210
208,218
208,224
209,216
209,217
210,225
211,214
211,222
212,213
212,215
213,219
214,218
214,219
214,232
215,220
215,221
216,218
216,219
216,222
217,220
218,226
220,224
220,235
221,223
221,225
221,238
222,225
222,244
223,243
224,230
225,229
226,227
226,228
226,231
227,233
229,232
229,239
229,248
229,250
230,240
231,233
232,234
233,235
233,236
233,237
234,240
235,239
235,242
235,248
236,238
238,241
238,242
238,244
239,243
239,246
240,245
241,247
241,248
241,249
243,247
244,250

<end>
